CNF/sudoku_4x4_02.cnf
c Optimised CNF encoding for 4x4 Sudoku
c Source: sudoku_4x4_02.txt
c Variables: 20  Clauses: 84
c SIZE 4
c MAP 1 1 1 1
c MAP 2 1 1 3
c MAP 3 1 3 4
c MAP 4 1 4 1
c MAP 5 1 4 4
c MAP 6 2 1 1
c MAP 7 2 2 1
c MAP 8 2 2 4
c MAP 9 2 3 2
c MAP 10 2 3 4
c MAP 11 3 2 1
c MAP 12 3 2 3
c MAP 13 3 3 2
c MAP 14 3 3 3
c MAP 15 3 4 2
c MAP 16 4 1 2
c MAP 17 4 1 3
c MAP 18 4 2 3
c MAP 19 4 4 2
c MAP 20 4 4 4
c FIXED 1 2 2
c FIXED 2 4 3
c FIXED 3 1 4
c FIXED 4 3 1
p cnf 20 84
1 2 0
3 0
4 5 0
6 0
7 8 0
9 10 0
11 12 0
13 14 0
15 0
16 17 0
18 0
19 20 0
-1 -2 0
-4 -5 0
-7 -8 0
-9 -10 0
-11 -12 0
-13 -14 0
-16 -17 0
-19 -20 0
1 4 0
2 0
3 5 0
6 7 0
9 0
8 10 0
11 0
13 15 0
12 14 0
16 19 0
17 18 0
20 0
-1 -4 0
-3 -5 0
-6 -7 0
-8 -10 0
-13 -15 0
-12 -14 0
-16 -19 0
-17 -18 0
1 6 0
16 0
2 17 0
7 11 0
12 18 0
8 0
9 13 0
14 0
3 10 0
4 0
15 19 0
5 20 0
-1 -6 0
-2 -17 0
-7 -11 0
-12 -18 0
-9 -13 0
-3 -10 0
-15 -19 0
-5 -20 0
1 6 7 0
2 0
8 0
4 0
9 0
3 5 10 0
11 0
16 0
12 17 18 0
13 15 19 0
14 0
20 0
-1 -6 0
-1 -7 0
-6 -7 0
-3 -5 0
-3 -10 0
-5 -10 0
-12 -17 0
-12 -18 0
-17 -18 0
-13 -15 0
-13 -19 0
-15 -19 0
