Puzzles/sudoku_4x4_02.txt
SIZE 4
PUZZLE
0 2 0 0
0 0 0 3
4 0 0 0
0 0 1 0
